db/data/14142321963045124431294532661193392100.z3.out
-------------------
2500.092664595
